NAME : Circular60
COMMENT : 60 cities evently distributed on the circomference of the origin centered circle with radius 10.
TYPE : TSP
DIMENSION : 60
EDGE_WEIGHT_TYPE : EUC_2D
NODE_COORD_SECTION
1 10.0000 0.0000
2 9.9452 1.0453
3 9.7815 2.0791
4 9.5106 3.0902
5 9.1355 4.0674
6 8.6603 5.0000
7 8.0902 5.8779
8 7.4314 6.6913
9 6.6913 7.4314
10 5.8779 8.0902
11 5.0000 8.6603
12 4.0674 9.1355
13 3.0902 9.5106
14 2.0791 9.7815
15 1.0453 9.9452
16 0.0000 10.0000
17 -1.0453 9.9452
18 -2.0791 9.7815
19 -3.0902 9.5106
20 -4.0674 9.1355
21 -5.0000 8.6603
22 -5.8779 8.0902
23 -6.6913 7.4314
24 -7.4314 6.6913
25 -8.0902 5.8779
26 -8.6603 5.0000
27 -9.1355 4.0674
28 -9.5106 3.0902
29 -9.7815 2.0791
30 -9.9452 1.0453
31 -10.0000 0.0000
32 -9.9452 -1.0453
33 -9.7815 -2.0791
34 -9.5106 -3.0902
35 -9.1355 -4.0674
36 -8.6603 -5.0000
37 -8.0902 -5.8779
38 -7.4314 -6.6913
39 -6.6913 -7.4314
40 -5.8779 -8.0902
41 -5.0000 -8.6603
42 -4.0674 -9.1355
43 -3.0902 -9.5106
44 -2.0791 -9.7815
45 -1.0453 -9.9452
46 0.0000 -10.0000
47 1.0453 -9.9452
48 2.0791 -9.7815
49 3.0902 -9.5106
50 4.0674 -9.1355
51 5.0000 -8.6603
52 5.8779 -8.0902
53 6.6913 -7.4314
54 7.4314 -6.6913
55 8.0902 -5.8779
56 8.6603 -5.0000
57 9.1355 -4.0674
58 9.5106 -3.0902
59 9.7815 -2.0791
60 9.9452 -1.0453
EOF
